c --- [ banner ] -------------------------------------------------------------
c 
c CaDiCaL Radically Simplified CDCL SAT Solver
c Copyright (c) 2016-2021 A. Biere, M. Fleury, N. Froleyks
c 
c Version 1.5.2 a5f15211db36c3956764e18194dd5bd63bf3b5e6
c g++ (GCC) 9.3.0 -Wall -Wextra -O3 -DNDEBUG
c Fri Oct 21 01:27:37 EDT 2022 Linux gra-login3 3.10.0-1160.66.1.el7.x86_64 x86_64
c 
c --- [ limit ] --------------------------------------------------------------
c 
c setting conflict limit to 200000 conflicts (due to '200000')
c 
c --- [ parsing input ] ------------------------------------------------------
c 
c reading DIMACS file from '33.cubes6905.adj'
c opening file to read '33.cubes6905.adj'
c found 'p cnf 6160 1595474' header
c parsed 1595474 clauses in 17.34 seconds process time
c closing file '33.cubes6905.adj'
c after reading 1457566770 bytes 1390.0 MB
c 
c --- [ options ] ------------------------------------------------------------
c 
c all options are set to their default value
c 
c --- [ solving ] ------------------------------------------------------------
c 
c time measured in process time since initialization
c 
c  seconds    reductions  redundant   irredundant
c          MB     restarts       trail       variables
c            level   conflicts       glue         remaining
c 
c * 17.34 1378  0 0   0    0    0  0% 0 1595422 2369 38%
c { 18.65 1446  0 0   0    0    0  0% 0 1595422 2369 38%
c i 20.45 1484 520 0   5   42   35 30% 15 1595422 2366 38%
c i 21.31 1492 88 0   7  258   75 20% 8 1595422 2365 38%
c - 27.02 1436 95 1  18  301  107 21% 12 391540 2365 38%
c i 27.67 1436 97 1  35  378  164 22% 16 391540 2364 38%
c i 28.03 1437 99 1  46  427  207 23% 21 391540 2363 38%
c i 28.29 1437 94 1  57  465  226 23% 20 391540 2362 38%
c i 28.36 1437 94 1  58  470  230 23% 20 391540 2361 38%
c i 28.38 1437 94 1  59  474  232 23% 21 391540 2360 38%
c i 28.41 1437 93 1  60  476  233 23% 21 391540 2359 38%
c i 28.44 1437 93 1  61  478  234 23% 21 391540 2358 38%
c i 29.38 1438 93 1  86  579  323 24% 26 391540 2357 38%
c i 29.80 1438 91 1  97  626  356 24% 26 391540 2356 38%
c i 29.81 1438 91 1  98  627  356 24% 26 391540 2355 38%
c i 30.75 1439 91 1 106  711  422 24% 25 391540 2337 38%
c i 30.90 1439 88 1 106  740  441 25% 25 391540 2333 38%
c i 30.94 1439 88 1 106  742  442 25% 25 391540 2332 38%
c i 31.03 1439 88 1 106  755  453 25% 25 391540 2331 38%
c i 31.13 1439 87 1 106  762  458 25% 25 391540 2330 38%
c 
c  seconds    reductions  redundant   irredundant
c          MB     restarts       trail       variables
c            level   conflicts       glue         remaining
c 
c i 31.14 1439 87 1 106  763  458 25% 25 391540 2329 38%
c i 31.19 1439 87 1 106  772  466 25% 25 391540 2328 38%
c i 31.44 1439 87 1 110  800  493 25% 25 391540 2327 38%
c i 31.53 1439 85 1 113  831  514 25% 25 391540 2326 38%
c i 31.84 1439 84 1 122  897  578 25% 26 391540 2325 38%
c i 31.94 1439 85 1 127  918  596 25% 27 391540 2324 38%
c i 32.01 1439 86 1 131  931  608 25% 27 391540 2323 38%
c i 32.15 1439 85 1 139  962  626 25% 27 391540 2316 38%
c i 32.34 1439 84 1 145  980  643 25% 28 391540 2315 38%
c i 32.41 1439 84 1 147  991  652 25% 28 391540 2313 38%
c i 32.44 1439 84 1 148  994  654 25% 28 391540 2312 38%
c } 32.46 1439 84 1 150 1000  660 25% 28 391540 2312 38%
c [ 32.46 1439  0 1 150 1000  660  0% 0 391540 2312 38%
c O 32.49 1439 48 1 150 1003  663 28% 38 391540 2312 38%
c i 32.61 1439 17 1 150 1056  689 33% 15 391540 2311 38%
c i 32.62 1439 17 1 150 1066  695 33% 15 391540 2310 38%
c i 32.63 1439 17 1 150 1076  696 33% 15 391540 2309 37%
c i 32.64 1439 17 1 150 1101  715 33% 14 391540 2308 37%
c i 32.65 1439 17 1 150 1108  720 32% 14 391540 2307 37%
c i 32.67 1439 16 1 150 1168  751 32% 14 391540 2306 37%
c 
c  seconds    reductions  redundant   irredundant
c          MB     restarts       trail       variables
c            level   conflicts       glue         remaining
c 
c - 33.36 1556 16 2 150 1256  753 32% 14 260017 2306 37%
c i 33.41 1556 16 2 150 1261  757 32% 14 260017 2305 37%
c i 33.47 1556 16 2 150 1287  767 32% 14 260017 2304 37%
c i 33.47 1556 16 2 150 1288  767 32% 14 260017 2303 37%
c i 33.55 1556 15 2 150 1408  832 32% 13 260017 2302 37%
c i 33.69 1556 17 2 150 1679  952 32% 14 260017 2301 37%
c i 33.89 1556 27 2 151 2071 1228 31% 21 260017 2300 37%
c i 33.99 1556 26 2 151 2282 1373 31% 21 260017 2299 37%
c - 34.41 1554 25 3 151 2531 1139 31% 20 259996 2299 37%
c ] 34.90 1492 23 3 151 3000 1390 53% 19 259996 2299 37%
c { 34.90 1492 84 3 151 3000 1390 68% 28 259996 2299 37%
c F 34.93 1492 84 3 153 3004 1394 68% 28 259996 2299 37%
c i 35.25 1492 80 3 155 3091 1475 66% 27 259996 2298 37%
c i 35.34 1492 80 3 155 3108 1491 66% 27 259996 2297 37%
c i 35.43 1492 81 3 158 3117 1498 66% 28 259996 2289 37%
c i 35.97 1492 79 3 172 3190 1553 64% 28 259996 2286 37%
c i 36.04 1492 79 3 172 3206 1564 64% 28 259996 2285 37%
c i 36.11 1492 78 3 172 3222 1578 64% 28 259996 2284 37%
c i 36.11 1492 78 3 172 3223 1578 64% 28 259996 2283 37%
c i 36.16 1492 77 3 172 3246 1595 64% 28 259996 2282 37%
c 
c  seconds    reductions  redundant   irredundant
c          MB     restarts       trail       variables
c            level   conflicts       glue         remaining
c 
c i 36.30 1492 76 3 174 3301 1648 63% 28 259996 2281 37%
c i 36.35 1492 75 3 174 3317 1661 63% 28 259996 2280 37%
c i 36.35 1492 75 3 174 3319 1662 63% 28 259996 2279 37%
c i 36.39 1492 75 3 174 3328 1670 63% 28 259996 2278 37%
c i 36.40 1492 75 3 175 3329 1670 63% 28 259996 2277 37%
c i 36.51 1492 74 3 175 3381 1718 62% 28 259996 2276 37%
c i 36.74 1492 72 3 183 3474 1794 61% 28 259996 2275 37%
c i 36.84 1492 70 3 183 3564 1857 61% 27 259996 2274 37%
c i 36.85 1492 69 3 183 3566 1858 61% 27 259996 2273 37%
c i 36.87 1492 69 3 183 3575 1863 61% 27 259996 2272 37%
c i 36.95 1492 68 3 183 3624 1904 60% 27 259996 2271 37%
c i 36.95 1492 68 3 183 3627 1906 60% 27 259996 2270 37%
c i 37.04 1492 66 3 183 3754 1998 60% 27 259996 2269 37%
c i 37.05 1492 65 3 183 3768 2008 59% 27 259996 2268 37%
c i 37.06 1492 65 3 183 3770 2009 59% 27 259996 2267 37%
c i 37.06 1492 65 3 183 3778 2014 59% 27 259996 2266 37%
c i 37.08 1492 65 3 183 3799 2033 59% 27 259996 2265 37%
c i 37.11 1492 65 3 183 3811 2043 59% 27 259996 2264 37%
c i 37.93 1492 66 3 216 3962 2175 58% 29 259996 2263 37%
c i 39.23 1492 67 3 253 4182 2373 57% 30 259996 2262 37%
c 
c  seconds    reductions  redundant   irredundant
c          MB     restarts       trail       variables
c            level   conflicts       glue         remaining
c 
c i 39.35 1492 66 3 254 4227 2408 56% 29 259996 2261 37%
c - 39.69 1485 66 4 254 4230 1830 56% 29 259731 2261 37%
c i 39.72 1485 66 4 254 4231 1830 56% 29 259731 2260 37%
c i 40.49 1485 65 4 274 4522 2090 55% 30 259731 2259 37%
c i 40.78 1485 65 4 286 4572 2136 55% 30 259731 2258 37%
c i 41.23 1485 65 4 299 4672 2221 55% 30 259731 2257 37%
c i 41.38 1485 62 4 299 4825 2330 55% 29 259731 2256 37%
c i 41.50 1485 62 4 301 4937 2426 54% 29 259731 2255 37%
c 2 41.99 1485 61 4 301 5000 3714 54% 30 259693 2245 36%
c p 48.78 1485 61 4 301 5000 8740 54% 30 259693 2198 36%
c d 49.17 1485 61 4 301 5000 8667 54% 30 250940 2193 36%
c # 50.04 1485 54 4 303 6005 9386 53% 28 250940 2193 36%
c - 50.69 1380 52 5 307 6352 2709 53% 27 250940 2193 36%
c } 50.95 1380 48 5 307 7001 3108 53% 26 250940 2193 36%
c [ 50.95 1380 23 5 307 7001 3108 53% 19 250940 2193 36%
c - 51.54 1381 22 6 308 8871 2772 51% 18 250940 2193 36%
c I 51.90 1381 20 6 309 10006 3402 51% 17 250940 2193 36%
c - 54.08 1381 58 7 311 11811 3583 49% 44 250940 2193 36%
c 2 57.99 1381 90 7 312 15000 7403 48% 67 250937 2193 36%
c p 59.91 1381 90 7 312 15000 11553 48% 67 250937 2192 36%
c 
c  seconds    reductions    redundant   irredundant
c          MB     restarts         trail       variables
c            level    conflicts        glue         remaining
c 
c ] 60.02 1381 90 7 312 15002 11555 48% 67 250937 2192 36%
c { 60.02 1381 48 7 312 15002 11555 53% 26 250937 2192 36%
c B 60.16 1381 48 7 313 15010 11562 52% 26 250937 2192 36%
c - 60.75 1381 47 8 322 15170 4516 52% 26 250931 2192 36%
c s 63.48 1381 36 8 330 18791 6821 52% 22 248568 2192 36%
c v 66.41 1381 36 8 330 18791 6821 52% 22 248537 2192 36%
c w 66.49 1381 36 8 330 18791 6815 52% 22 248537 2192 36%
c t 66.50 1381 36 8 330 18791 6813 52% 22 248526 2192 36%
c e 67.04 1383 36 8 330 18791 6614 52% 22 245725 815 13%
c s 67.12 1383 36 8 330 18791 6614 52% 22 245413 815 13%
c - 68.11 1383 35 9 330 18948 4517 78% 22 245413 815 13%
c W 69.43 1383 32 9 330 21015 5760 79% 21 245413 815 13%
c - 71.44 1383 30 10 368 23118 4658 79% 20 245413 815 13%
c - 81.29 1383 32 11 838 27706 5552 77% 21 245413 815 13%
c F 81.58 1383 32 11 844 28016 5731 77% 21 245413 815 13%
c 2 87.36 1383 33 11 1110 30000 7761 77% 22 245412 815 13%
c p 90.86 1383 33 11 1110 30000 10212 77% 22 245412 813 13%
c } 91.41 1383 32 11 1110 31004 10892 77% 22 245412 813 13%
c [ 91.41 1383 90 11 1110 31004 10892 134% 67 245412 813 13%
c - 93.01 1383 80 12 1110 32710 6362 124% 60 245406 813 13%
c 
c  seconds    reductions     redundant    irredundant
c          MB      restarts         trail        variables
c            level      conflicts        glue        remaining
c 
c B 95.32 1383 66 12 1113 36020 8282 112% 50 245406 813 13%
c - 96.68 1383 60 13 1114 38132 6276 107% 46 245406 813 13%
c - 99.63 1383 50 14 1117 43970 6807 99% 39 245406 813 13%
c W 101.68 1383 49 14 1117 45022 7474 98% 39 245406 813 13%
c ] 103.98 1383 44 14 1118 49317 9779 95% 35 245406 813 13%
c 1 103.98 1383 44 14 1118 49317 9779 95% 35 245406 813 13%
c 
c --- [ writing output ] -----------------------------------------------------
c 
c writing simplified CNF to DIMACS file 'simp/33.cubes6905.adj.simp1'
c * 103.98 1383 44 14 1118 49317 9779 95% 35 245406 813 13%
c opening file to write 'simp/33.cubes6905.adj.simp1'
c writing 'p cnf 6160 245406' header
c closing file 'simp/33.cubes6905.adj.simp1'
c after writing 111859754 bytes 106.7 MB
c wrote 245406 clauses in 0.68 seconds process time
c 
c --- [ writing extension ] --------------------------------------------------
c 
c writing extension stack to 'simp/33.cubes6905.adj.ext1'
c opening file to write 'simp/33.cubes6905.adj.ext1'
c closing file 'simp/33.cubes6905.adj.ext1'
c after writing 88809 bytes 0.1 MB
c wrote 3981 witnesses in 0.00 seconds process time
c 
c --- [ result ] -------------------------------------------------------------
c 
s SATISFIABLE
c 
c --- [ run-time profiling ] -------------------------------------------------
c 
c process time taken by individual solving procedures
c (percentage relative to process time for solving)
c 
c        69.32   80.01% search
c        45.72   52.77% unstable
c        20.85   24.06% stable
c        17.34   20.01% parse
c        17.32   19.99% simplify
c        12.20   14.08% probe
c         2.99    3.45% vivify
c         1.44    1.66% walk
c         1.31    1.51% lucky
c         0.98    1.13% elim
c         0.16    0.19% subsume
c         0.09    0.11% ternary
c   =================================
c        86.64   82.79% solve
c 
c last line shows process time for solving
c (percentage relative to total process time)
c 
c --- [ statistics ] ---------------------------------------------------------
c 
c chronological:              8062        16.35 %  of conflicts
c conflicts:                 49317       569.20    per second
c decisions:                127176      1467.83    per second
c eliminated:                 1377        22.35 %  of all variables
c fixed:                       811        13.17 %  of all variables
c learned:                   48332        98.00 %  per conflict
c learned_lits:            9882548       100.00 %  learned literals
c minimized:                     0         0.00 %  learned literals
c shrunken:                6643081        67.22 %  learned literals
c minishrunken:             539962         5.46 %  learned literals
c propagations:            4557936         0.05 M  per second
c reduced:                   22543        45.71 %  per conflict
c rephased:                      9      5479.67    interval
c restarts:                   1118        44.11    interval
c stabilizing:                   3        57.41 %  of conflicts
c substituted:                  15         0.24 %  of all variables
c subsumed:                  18479         0.54 %  of all clauses
c strengthened:               5864         0.17 %  of all clauses
c ternary:                    2923         0.63 %  of resolved
c vivified:                     46         0.00 %  of all clauses
c walked:                        2     24658.50    interval
c weakened:                   3170         2.95    average size
c 
c seconds are measured in process time for solving
c 
c --- [ resources ] ----------------------------------------------------------
c 
c total process time since initialization:       104.66    seconds
c total real time since initialization:          104.99    seconds
c maximum resident set size of process:         1670.73    MB
c 
c --- [ shutting down ] ------------------------------------------------------
c 
c exit 10
WARNING! DIMACS header mismatch: wrong number of variables.
============================[ Problem Statistics ]=============================
|                                                                             |
|  Number of variables:          6111                                         |
|  Number of clauses:          245408                                         |
|  Parse time:                   1.55 s                                       |
|  Simplification time:          0.04 s                                       |
|                                                                             |
============================[ Search Statistics ]====================================================
| Conflicts |          ORIGINAL         |          LEARNT          | Num Sols |      SUBGRAPHS      |
|           |    Vars  Clauses Literals |    Limit  Clauses Lit/Cl |          | Canonical Noncanon. |
=====================================================================================================
|       102 |    6018   245410 24436330 |     2000      102     25 |        0 |        30         2 |
|       265 |    6018   245423 24436516 |     2000      265     83 |        0 |        34        15 |
|       502 |    6018   245435 24436737 |     2000      502     97 |        0 |        36        27 |
|       841 |    6018   245437 24436764 |     2000      841     91 |        0 |        40        29 |
|      1351 |    6018   245441 24436856 |     2000     1351     83 |        0 |        40        33 |
|      2128 |    6018   245459 24437438 |     3601     1129     67 |        0 |        52        51 |
|      3278 |    6018   245470 24437945 |     3601     2279     96 |        0 |        68        62 |
|      8554 |    6018   249038 24495811 |     6301     3255     17 |        0 |       957      3630 |
|     14078 |    6018   252000 24560309 |     7556     5634     45 |        0 |      1747      6592 |
|     18022 |    6018   252100 24562596 |     8783     5805     41 |        0 |      1778      6692 |
|     42446 |    6018   270758 24903301 |    13612     9058     25 |        0 |      5153     25350 |
|     52638 |    6018   272301 24934170 |    14814    12452     51 |        0 |      5567     26893 |
|     67082 |    6018   273771 24965497 |    17211    11493     46 |        0 |      5830     28363 |
|     88182 |    6018   275410 24992059 |    19617    14799     56 |        0 |      6138     30002 |
|    124698 |    6018   282734 25126925 |    23209    20107     28 |        0 |      7336     37326 |
|    205505 |    6018   319752 25732928 |    30424    22329     35 |        0 |     11057     74344 |
|    315186 |    6018   363749 26531219 |    37622    31808     60 |        0 |     15379    118341 |
|    634682 |    6018   584719 29772055 |    54406    33488     23 |        0 |     29606    339311 |
|    859516 |    5991   374158 23188227 |    62186    54702     64 |        0 |     36193    416356 |
=====================================================================================================
Number of solutions   : 0
Canonical subgraphs   : 38508          (38 /sec)
          order  3    : 1              (200000 /sec)
          order  4    : 1              (1000000 /sec)
          order  5    : 1              (200000 /sec)
          order  6    : 1              (52632 /sec)
          order  7    : 2              (9804 /sec)
          order  8    : 5              (2281 /sec)
          order  9    : 13             (535 /sec)
          order 10    : 57             (173 /sec)
          order 11    : 280            (58 /sec)
          order 12    : 916            (44 /sec)
          order 13    : 3630           (65 /sec)
          order 14    : 22086          (51 /sec)
          order 15    : 6007           (27 /sec)
          order 16    : 5298           (21 /sec)
          order 17    : 208            (14 /sec)
          order 18    : 2              (10 /sec)
          order 19    : 0              (-nan /sec)
          order 20    : 0              (-nan /sec)
          order 21    : 0              (-nan /sec)
          order 22    : 0              (-nan /sec)
Noncanonical subgraphs: 477243         (309 /sec)
          order  3    : 0              (-nan /sec)
          order  4    : 0              (-nan /sec)
          order  5    : 0              (-nan /sec)
          order  6    : 0              (-nan /sec)
          order  7    : 0              (-nan /sec)
          order  8    : 0              (-nan /sec)
          order  9    : 0              (-nan /sec)
          order 10    : 0              (-nan /sec)
          order 11    : 0              (-nan /sec)
          order 12    : 0              (-nan /sec)
          order 13    : 21599          (2148 /sec)
          order 14    : 31833          (2985 /sec)
          order 15    : 396273         (288 /sec)
          order 16    : 21728          (190 /sec)
          order 17    : 5581           (159 /sec)
          order 18    : 229            (151 /sec)
          order 19    : 0              (-nan /sec)
          order 20    : 0              (-nan /sec)
          order 21    : 0              (-nan /sec)
Canonicity checking   : 1016.1 s
Noncanonicity checking: 1546.98 s
Total canonicity time : 2563.08 s
database reductions   : 54
restarts              : 2046
conflicts             : 974920         (340 /sec)
decisions             : 1632926        (0.00 % random) (569 /sec)
propagations          : 36713825       (12801 /sec)
conflict literals     : 62035511       (55.37 % deleted)
actual reward         : 0.219757
Memory used           : 388.00 MB
CPU time              : 2867.97 s

UNSATISFIABLE
